DIMACS2
80 92 314 202 220 130 85 93 90 184 167 101 138 100 259 210 204 296 255 169 178 45 36 292 14 218 180 289 221 61 68 300 199 267 56 50 122 74 295 49 272 7 117 193 112 62 258 86 25 135 214 271 284 106 176 103 253 31 238 174 207 233 155 141 147 315 11 270 12 185 128 20 110 281 265 133 293 98 216 32 226
p edge 320 1263
e 0 264 1.0
e 0 238 19.0
e 0 8 1.0
e 0 153 1.0
e 1 269 1.0
e 1 157 1.0
e 1 42 1.0
e 1 154 1.0
e 2 205 1.0
e 2 257 1.0
e 2 147 6.0
e 2 207 6.0
e 3 111 1.0
e 3 161 1.0
e 3 54 1.0
e 3 45 27.0
e 4 316 1.0
e 4 84 1.0
e 4 279 2.0
e 5 250 3.0
e 5 222 1.0
e 5 199 28.0
e 5 40 1.0
e 6 97 1.0
e 6 286 1.0
e 6 160 1.0
e 6 133 12.0
e 7 311 39.0
e 7 30 7.0
e 7 268 4.0
e 7 188 23.0
e 8 221 9.0
e 8 247 2.0
e 8 15 1.0
e 8 236 1.0
e 9 174 15.0
e 9 238 49.0
e 9 242 1.0
e 9 233 4.0
e 10 295 13.0
e 10 102 3.0
e 10 309 2.0
e 10 288 1.0
e 11 79 1.0
e 11 33 3.0
e 11 212 34.0
e 11 146 2.0
e 12 35 29.0
e 12 155 48.0
e 12 40 42.0
e 12 3 36.0
e 13 296 37.0
e 13 68 33.0
e 13 316 1.0
e 13 182 1.0
e 14 303 1.0
e 14 87 21.0
e 14 318 8.0
e 14 34 26.0
e 15 222 1.0
e 15 178 31.0
e 15 42 1.0
e 15 37 1.0
e 16 256 1.0
e 16 86 20.0
e 16 184 26.0
e 16 280 1.0
e 17 87 2.0
e 17 3 1.0
e 17 71 1.0
e 17 209 2.0
e 18 10 2.0
e 18 168 1.0
e 18 316 1.0
e 18 211 1.0
e 19 147 40.0
e 19 216 32.0
e 19 318 1.0
e 19 303 1.0
e 20 194 45.0
e 20 198 45.0
e 20 54 49.0
e 20 142 40.0
e 21 294 1.0
e 21 156 1.0
e 21 17 1.0
e 21 266 1.0
e 22 141 44.0
e 22 27 1.0
e 22 84 1.0
e 22 256 1.0
e 23 232 1.0
e 23 265 3.0
e 23 312 1.0
e 23 44 1.0
e 24 131 1.0
e 24 76 1.0
e 24 144 2.0
e 24 315 22.0
e 25 168 5.0
e 25 38 18.0
e 25 128 42.0
e 25 180 3.0
e 26 273 1.0
e 26 252 1.0
e 26 263 1.0
e 26 73 1.0
e 27 58 1.0
e 27 171 1.0
e 27 251 2.0
e 27 174 26.0
e 28 312 1.0
e 28 195 2.0
e 28 19 1.0
e 28 98 9.0
e 29 102 1.0
e 29 185 2.0
e 29 36 45.0
e 29 39 1.0
e 30 236 1.0
e 30 256 1.0
e 30 124 1.0
e 30 134 2.0
e 31 262 9.0
e 31 191 26.0
e 31 299 10.0
e 31 222 1.0
e 32 218 37.0
e 32 197 21.0
e 32 25 20.0
e 32 115 31.0
e 33 0 2.0
e 33 240 1.0
e 33 186 1.0
e 33 140 1.0
e 34 18 1.0
e 34 8 2.0
e 34 223 1.0
e 34 16 1.0
e 35 235 1.0
e 35 311 1.0
e 35 125 1.0
e 35 205 1.0
e 36 237 10.0
e 36 198 41.0
e 36 270 48.0
e 36 119 46.0
e 37 133 6.0
e 37 259 18.0
e 37 1 1.0
e 37 152 1.0
e 38 154 1.0
e 38 184 47.0
e 38 44 1.0
e 39 131 1.0
e 39 90 27.0
e 39 83 1.0
e 39 266 2.0
e 40 166 1.0
e 40 255 26.0
e 40 82 1.0
e 40 70 2.0
e 41 248 1.0
e 41 119 1.0
e 41 170 1.0
e 41 243 1.0
e 42 164 2.0
e 42 184 43.0
e 42 300 42.0
e 42 95 1.0
e 43 164 1.0
e 43 189 1.0
e 43 290 3.0
e 43 28 1.0
e 44 138 44.0
e 44 281 16.0
e 44 312 1.0
e 44 316 1.0
e 45 317 34.0
e 45 82 31.0
e 45 142 6.0
e 45 265 13.0
e 46 25 37.0
e 46 161 2.0
e 46 291 1.0
e 46 192 1.0
e 47 95 1.0
e 47 216 23.0
e 47 240 2.0
e 47 61 49.0
e 48 44 1.0
e 48 67 1.0
e 48 296 5.0
e 48 277 1.0
e 49 73 34.0
e 49 9 43.0
e 49 97 49.0
e 49 180 29.0
e 50 288 43.0
e 50 281 23.0
e 50 298 12.0
e 50 192 30.0
e 51 249 1.0
e 51 156 1.0
e 51 280 2.0
e 51 287 1.0
e 52 67 3.0
e 52 158 1.0
e 52 152 1.0
e 52 318 1.0
e 53 155 19.0
e 53 28 1.0
e 53 190 1.0
e 53 255 2.0
e 54 16 1.0
e 54 114 1.0
e 54 183 1.0
e 54 156 1.0
e 55 10 2.0
e 55 87 2.0
e 55 200 2.0
e 55 85 20.0
e 56 275 8.0
e 56 314 37.0
e 56 243 20.0
e 56 4 4.0
e 57 160 1.0
e 57 169 16.0
e 57 166 1.0
e 57 258 23.0
e 58 5 1.0
e 58 269 1.0
e 58 25 47.0
e 58 223 1.0
e 59 67 1.0
e 59 272 18.0
e 59 268 1.0
e 59 267 37.0
e 60 11 6.0
e 60 184 29.0
e 60 175 1.0
e 60 122 48.0
e 61 252 1.0
e 61 269 48.0
e 61 298 15.0
e 61 80 35.0
e 62 236 47.0
e 62 65 7.0
e 62 210 19.0
e 62 304 35.0
e 63 43 1.0
e 63 19 1.0
e 63 188 1.0
e 64 28 1.0
e 64 155 33.0
e 64 206 1.0
e 64 122 10.0
e 65 252 1.0
e 65 25 8.0
e 65 228 1.0
e 65 42 1.0
e 66 96 1.0
e 66 318 1.0
e 66 152 1.0
e 66 309 1.0
e 67 309 1.0
e 67 200 1.0
e 67 236 2.0
e 67 202 14.0
e 68 69 36.0
e 68 248 20.0
e 68 244 5.0
e 68 243 10.0
e 69 7 9.0
e 69 130 36.0
e 69 60 1.0
e 69 163 2.0
e 70 171 1.0
e 70 17 2.0
e 70 6 3.0
e 70 83 1.0
e 71 258 10.0
e 71 127 2.0
e 71 96 1.0
e 71 312 2.0
e 72 272 26.0
e 72 58 1.0
e 72 212 1.0
e 72 215 1.0
e 73 125 1.0
e 73 184 2.0
e 73 187 1.0
e 73 244 1.0
e 74 169 49.0
e 74 209 12.0
e 74 295 46.0
e 74 202 11.0
e 75 142 2.0
e 75 183 1.0
e 75 95 2.0
e 75 109 1.0
e 76 42 1.0
e 76 249 1.0
e 76 311 1.0
e 76 146 2.0
e 77 131 2.0
e 77 194 1.0
e 77 87 1.0
e 77 5 1.0
e 78 19 1.0
e 78 258 24.0
e 78 294 1.0
e 78 35 1.0
e 79 258 19.0
e 79 151 1.0
e 79 39 1.0
e 79 200 1.0
e 80 82 1.0
e 80 116 1.0
e 80 13 1.0
e 80 124 1.0
e 81 69 1.0
e 81 255 47.0
e 81 262 1.0
e 81 163 2.0
e 82 122 36.0
e 82 58 1.0
e 82 297 1.0
e 82 259 40.0
e 83 151 1.0
e 83 316 1.0
e 83 268 1.0
e 83 21 1.0
e 84 237 1.0
e 84 186 1.0
e 84 16 2.0
e 84 232 1.0
e 85 45 35.0
e 85 281 12.0
e 85 291 37.0
e 85 277 43.0
e 86 97 27.0
e 86 276 13.0
e 86 39 4.0
e 86 227 26.0
e 87 248 1.0
e 87 3 1.0
e 87 175 2.0
e 87 21 1.0
e 88 41 1.0
e 88 80 1.0
e 88 276 1.0
e 88 135 42.0
e 89 241 1.0
e 89 163 1.0
e 89 184 41.0
e 89 187 1.0
e 90 152 39.0
e 90 303 11.0
e 90 224 12.0
e 90 72 46.0
e 91 276 1.0
e 91 52 1.0
e 91 160 1.0
e 91 50 22.0
e 92 201 4.0
e 92 211 5.0
e 92 235 18.0
e 92 95 14.0
e 93 312 38.0
e 93 162 3.0
e 93 1 43.0
e 93 181 37.0
e 94 316 1.0
e 94 67 1.0
e 94 247 1.0
e 95 158 1.0
e 95 212 2.0
e 95 284 47.0
e 95 165 2.0
e 96 176 1.0
e 96 39 1.0
e 96 267 18.0
e 97 40 1.0
e 97 280 2.0
e 97 259 40.0
e 98 100 40.0
e 98 128 4.0
e 98 62 9.0
e 98 30 33.0
e 99 251 1.0
e 99 173 1.0
e 99 164 2.0
e 99 216 20.0
e 100 133 46.0
e 100 90 19.0
e 100 205 34.0
e 100 112 44.0
e 101 52 39.0
e 101 201 13.0
e 101 83 10.0
e 101 204 3.0
e 102 179 3.0
e 102 165 1.0
e 102 190 2.0
e 103 49 14.0
e 103 111 26.0
e 103 117 49.0
e 103 168 26.0
e 104 7 21.0
e 104 146 1.0
e 104 269 1.0
e 104 221 43.0
e 105 314 15.0
e 105 213 1.0
e 105 88 1.0
e 105 318 1.0
e 106 315 23.0
e 106 254 8.0
e 106 23 2.0
e 106 16 27.0
e 107 151 1.0
e 107 294 1.0
e 107 279 1.0
e 107 139 1.0
e 108 25 2.0
e 108 128 1.0
e 108 218 18.0
e 108 162 1.0
e 109 250 1.0
e 109 255 20.0
e 109 202 45.0
e 109 131 1.0
e 110 30 49.0
e 110 230 11.0
e 110 80 5.0
e 110 236 4.0
e 111 84 1.0
e 111 260 1.0
e 111 20 22.0
e 111 202 47.0
e 112 3 36.0
e 112 138 8.0
e 112 76 24.0
e 112 136 10.0
e 113 42 1.0
e 113 82 1.0
e 113 268 1.0
e 113 114 1.0
e 114 269 1.0
e 114 15 1.0
e 114 42 1.0
e 114 64 1.0
e 115 130 34.0
e 115 11 36.0
e 115 138 35.0
e 115 97 1.0
e 116 2 1.0
e 116 1 1.0
e 116 5 2.0
e 116 289 30.0
e 117 133 9.0
e 117 5 8.0
e 117 207 19.0
e 117 8 22.0
e 118 252 1.0
e 118 194 1.0
e 118 305 1.0
e 118 261 1.0
e 119 198 1.0
e 119 89 1.0
e 119 110 25.0
e 119 301 1.0
e 120 89 1.0
e 120 114 2.0
e 120 83 1.0
e 120 102 1.0
e 121 208 1.0
e 121 290 1.0
e 121 1 1.0
e 121 257 1.0
e 122 173 39.0
e 122 293 30.0
e 122 84 17.0
e 122 292 12.0
e 123 56 16.0
e 123 150 1.0
e 123 1 1.0
e 123 108 1.0
e 124 188 1.0
e 124 112 6.0
e 124 123 1.0
e 124 301 2.0
e 125 294 1.0
e 125 188 1.0
e 125 94 1.0
e 126 143 1.0
e 126 245 1.0
e 126 154 2.0
e 126 267 17.0
e 127 153 1.0
e 127 287 1.0
e 127 250 2.0
e 127 150 1.0
e 128 188 22.0
e 128 283 28.0
e 128 160 42.0
e 128 142 29.0
e 129 241 1.0
e 129 166 1.0
e 129 246 1.0
e 129 197 1.0
e 130 30 43.0
e 130 167 8.0
e 130 228 29.0
e 131 54 1.0
e 131 112 17.0
e 131 96 1.0
e 131 190 1.0
e 132 64 1.0
e 132 25 7.0
e 132 312 2.0
e 132 41 2.0
e 133 9 33.0
e 133 158 47.0
e 133 57 40.0
e 133 141 12.0
e 134 144 1.0
e 134 217 2.0
e 134 90 17.0
e 134 212 2.0
e 135 283 2.0
e 135 200 30.0
e 135 54 3.0
e 135 1 2.0
e 136 123 1.0
e 136 52 1.0
e 136 163 1.0
e 136 16 2.0
e 137 262 1.0
e 137 153 1.0
e 137 41 1.0
e 137 181 2.0
e 138 85 6.0
e 138 35 17.0
e 138 47 36.0
e 138 292 25.0
e 139 283 1.0
e 139 109 1.0
e 139 159 1.0
e 139 24 2.0
e 140 21 1.0
e 140 248 1.0
e 140 124 1.0
e 140 91 1.0
e 141 297 25.0
e 141 151 34.0
e 141 210 32.0
e 142 38 1.0
e 142 145 2.0
e 142 71 2.0
e 142 134 2.0
e 143 258 39.0
e 143 201 1.0
e 143 35 1.0
e 143 248 1.0
e 144 213 1.0
e 144 216 47.0
e 144 247 2.0
e 144 264 1.0
e 145 266 2.0
e 145 260 2.0
e 145 253 21.0
e 145 57 1.0
e 146 307 1.0
e 146 269 1.0
e 146 81 1.0
e 146 16 1.0
e 147 155 45.0
e 147 237 6.0
e 147 295 6.0
e 147 208 30.0
e 148 285 1.0
e 148 38 1.0
e 148 121 1.0
e 148 42 1.0
e 149 74 18.0
e 149 100 43.0
e 149 315 38.0
e 149 191 1.0
e 150 183 1.0
e 150 312 1.0
e 150 14 20.0
e 150 88 1.0
e 151 149 1.0
e 151 228 1.0
e 151 211 1.0
e 151 309 1.0
e 152 33 2.0
e 152 161 1.0
e 152 263 2.0
e 152 278 1.0
e 153 306 2.0
e 153 265 6.0
e 153 33 1.0
e 154 16 2.0
e 154 75 2.0
e 154 177 1.0
e 154 114 1.0
e 155 70 13.0
e 155 175 45.0
e 155 257 3.0
e 155 273 27.0
e 156 207 30.0
e 156 62 41.0
e 156 132 1.0
e 156 83 1.0
e 157 65 1.0
e 157 275 1.0
e 157 179 1.0
e 157 103 47.0
e 158 81 1.0
e 158 84 1.0
e 158 222 1.0
e 158 269 1.0
e 159 41 1.0
e 159 99 1.0
e 159 173 1.0
e 159 109 1.0
e 160 113 1.0
e 160 239 1.0
e 160 84 1.0
e 160 172 1.0
e 161 183 1.0
e 161 79 2.0
e 161 203 1.0
e 161 178 14.0
e 162 232 1.0
e 162 66 1.0
e 162 132 1.0
e 162 230 1.0
e 163 154 1.0
e 163 212 1.0
e 163 130 32.0
e 163 189 1.0
e 164 255 43.0
e 164 197 1.0
e 164 234 2.0
e 164 273 1.0
e 165 218 21.0
e 165 283 1.0
e 165 285 1.0
e 165 51 1.0
e 166 206 1.0
e 166 167 37.0
e 166 204 47.0
e 166 114 1.0
e 167 234 22.0
e 167 269 48.0
e 167 32 21.0
e 167 128 11.0
e 168 201 1.0
e 168 202 18.0
e 168 315 10.0
e 168 112 49.0
e 169 133 11.0
e 169 262 10.0
e 169 241 37.0
e 169 308 9.0
e 170 119 1.0
e 170 154 1.0
e 170 60 1.0
e 170 211 1.0
e 171 238 9.0
e 171 9 1.0
e 171 179 1.0
e 171 131 1.0
e 172 22 2.0
e 172 301 2.0
e 172 245 1.0
e 172 20 45.0
e 173 123 1.0
e 173 14 8.0
e 173 265 15.0
e 173 237 1.0
e 174 221 26.0
e 174 256 35.0
e 174 1 29.0
e 174 29 14.0
e 175 13 1.0
e 175 89 1.0
e 175 40 1.0
e 175 103 20.0
e 176 142 25.0
e 176 46 14.0
e 176 315 40.0
e 176 144 30.0
e 177 53 2.0
e 177 39 1.0
e 177 32 40.0
e 177 302 2.0
e 178 302 30.0
e 178 295 7.0
e 178 0 44.0
e 178 156 5.0
e 179 19 1.0
e 179 176 47.0
e 179 208 1.0
e 179 226 5.0
e 180 192 27.0
e 180 152 39.0
e 180 46 4.0
e 180 162 44.0
e 181 189 1.0
e 181 105 1.0
e 181 190 1.0
e 181 224 1.0
e 182 218 36.0
e 182 239 1.0
e 182 58 1.0
e 182 278 2.0
e 183 124 1.0
e 183 251 2.0
e 183 41 1.0
e 183 98 47.0
e 184 103 48.0
e 184 197 26.0
e 184 257 18.0
e 184 58 30.0
e 185 174 38.0
e 185 95 33.0
e 185 155 7.0
e 185 180 9.0
e 186 74 20.0
e 186 25 35.0
e 186 39 1.0
e 186 271 37.0
e 187 220 19.0
e 187 286 1.0
e 187 145 1.0
e 187 311 1.0
e 188 115 1.0
e 188 9 1.0
e 188 234 1.0
e 188 284 6.0
e 189 193 4.0
e 189 212 1.0
e 189 68 9.0
e 189 74 45.0
e 190 104 3.0
e 190 239 1.0
e 190 302 2.0
e 190 294 1.0
e 191 33 1.0
e 191 170 1.0
e 191 291 1.0
e 191 255 37.0
e 192 169 41.0
e 192 71 1.0
e 192 313 1.0
e 192 125 1.0
e 193 148 20.0
e 193 171 25.0
e 193 184 43.0
e 193 15 16.0
e 194 273 1.0
e 194 247 2.0
e 194 175 1.0
e 194 250 2.0
e 195 150 1.0
e 195 70 1.0
e 195 6 1.0
e 195 152 1.0
e 196 130 2.0
e 196 271 24.0
e 196 52 1.0
e 196 95 1.0
e 197 101 13.0
e 197 227 1.0
e 197 115 1.0
e 197 306 1.0
e 198 110 46.0
e 198 32 32.0
e 198 28 2.0
e 198 27 2.0
e 199 266 28.0
e 199 255 2.0
e 199 89 15.0
e 199 300 18.0
e 200 113 1.0
e 200 260 1.0
e 200 66 1.0
e 200 274 2.0
e 201 247 1.0
e 201 122 33.0
e 201 152 1.0
e 201 250 1.0
e 202 2 43.0
e 202 304 36.0
e 202 62 12.0
e 202 15 41.0
e 203 92 27.0
e 203 116 2.0
e 203 245 1.0
e 203 277 1.0
e 204 102 14.0
e 204 236 30.0
e 204 9 42.0
e 204 297 3.0
e 205 233 9.0
e 205 201 1.0
e 205 273 1.0
e 205 123 1.0
e 206 129 1.0
e 206 160 1.0
e 206 229 1.0
e 206 308 1.0
e 207 76 49.0
e 207 184 34.0
e 207 119 24.0
e 207 83 28.0
e 208 226 41.0
e 208 3 1.0
e 208 216 18.0
e 208 150 1.0
e 209 245 2.0
e 209 148 2.0
e 209 224 1.0
e 209 69 2.0
e 210 169 32.0
e 210 316 42.0
e 210 82 23.0
e 210 310 13.0
e 211 179 1.0
e 211 289 44.0
e 211 55 1.0
e 211 105 1.0
e 212 38 1.0
e 212 194 2.0
e 212 241 2.0
e 213 40 1.0
e 213 317 1.0
e 213 242 1.0
e 213 316 1.0
e 214 192 11.0
e 214 234 41.0
e 214 19 27.0
e 214 299 21.0
e 215 298 1.0
e 215 220 16.0
e 215 12 37.0
e 215 43 1.0
e 216 210 47.0
e 216 72 30.0
e 216 91 6.0
e 217 158 1.0
e 217 102 1.0
e 217 293 7.0
e 217 16 1.0
e 218 150 13.0
e 218 76 18.0
e 218 120 49.0
e 218 135 30.0
e 219 227 2.0
e 219 155 38.0
e 219 230 1.0
e 219 190 1.0
e 220 45 17.0
e 220 168 14.0
e 220 316 25.0
e 220 113 13.0
e 221 259 40.0
e 221 267 48.0
e 221 75 25.0
e 221 15 22.0
e 222 71 1.0
e 222 181 2.0
e 222 90 33.0
e 222 208 1.0
e 223 200 1.0
e 223 205 1.0
e 223 235 1.0
e 223 116 1.0
e 224 151 1.0
e 224 161 2.0
e 224 294 1.0
e 224 278 1.0
e 225 113 1.0
e 225 199 25.0
e 225 48 1.0
e 225 107 1.0
e 226 222 11.0
e 226 36 29.0
e 226 100 31.0
e 226 35 19.0
e 227 136 1.0
e 227 13 2.0
e 227 33 2.0
e 227 190 1.0
e 228 263 2.0
e 228 265 25.0
e 228 27 1.0
e 228 291 1.0
e 229 185 32.0
e 229 100 39.0
e 229 135 3.0
e 229 62 6.0
e 230 233 12.0
e 230 106 10.0
e 230 3 1.0
e 230 222 1.0
e 231 92 2.0
e 231 20 31.0
e 231 184 13.0
e 231 144 1.0
e 232 164 1.0
e 232 257 1.0
e 232 83 1.0
e 232 279 1.0
e 233 147 23.0
e 233 117 38.0
e 233 37 36.0
e 233 151 15.0
e 234 85 20.0
e 234 151 1.0
e 234 68 28.0
e 234 242 1.0
e 235 1 1.0
e 235 307 1.0
e 235 20 37.0
e 235 111 1.0
e 236 49 17.0
e 236 307 1.0
e 236 273 1.0
e 236 148 1.0
e 237 167 27.0
e 237 85 5.0
e 237 206 1.0
e 237 284 32.0
e 238 103 19.0
e 238 124 44.0
e 238 252 1.0
e 238 54 12.0
e 239 155 15.0
e 239 54 1.0
e 239 265 25.0
e 239 127 1.0
e 240 24 2.0
e 240 61 46.0
e 240 97 1.0
e 240 57 1.0
e 241 220 6.0
e 241 240 2.0
e 241 18 1.0
e 241 31 29.0
e 242 69 1.0
e 242 59 1.0
e 242 221 2.0
e 242 212 1.0
e 243 172 1.0
e 243 63 1.0
e 243 110 33.0
e 243 296 35.0
e 244 280 1.0
e 244 61 28.0
e 244 277 1.0
e 244 272 38.0
e 245 139 1.0
e 245 137 1.0
e 245 229 1.0
e 245 90 12.0
e 246 133 26.0
e 246 25 13.0
e 246 90 5.0
e 246 187 1.0
e 247 66 1.0
e 247 267 25.0
e 247 30 1.0
e 247 160 1.0
e 248 11 40.0
e 248 121 1.0
e 248 6 2.0
e 248 301 1.0
e 249 214 10.0
e 249 18 1.0
e 249 169 22.0
e 249 304 1.0
e 250 112 35.0
e 250 191 1.0
e 250 197 1.0
e 250 251 1.0
e 251 176 11.0
e 251 277 1.0
e 251 234 2.0
e 251 268 2.0
e 252 212 2.0
e 252 194 1.0
e 252 197 1.0
e 252 2 1.0
e 253 126 34.0
e 253 230 20.0
e 253 193 37.0
e 253 7 24.0
e 254 174 16.0
e 254 114 1.0
e 254 224 2.0
e 254 158 1.0
e 255 244 19.0
e 255 76 33.0
e 255 105 23.0
e 255 254 16.0
e 256 157 2.0
e 256 289 13.0
e 256 274 1.0
e 256 20 23.0
e 257 244 1.0
e 257 203 1.0
e 257 144 1.0
e 258 230 10.0
e 258 287 33.0
e 258 180 44.0
e 258 245 11.0
e 259 298 9.0
e 259 158 26.0
e 259 194 41.0
e 260 131 2.0
e 260 246 1.0
e 260 209 1.0
e 260 213 1.0
e 261 162 1.0
e 261 268 1.0
e 261 220 19.0
e 261 146 2.0
e 262 109 1.0
e 262 87 2.0
e 262 206 1.0
e 262 72 1.0
e 263 254 2.0
e 263 214 30.0
e 263 131 1.0
e 263 4 2.0
e 264 93 5.0
e 264 314 43.0
e 264 212 2.0
e 264 105 1.0
e 265 43 15.0
e 265 123 1.0
e 265 52 5.0
e 265 89 45.0
e 266 38 1.0
e 266 195 1.0
e 266 280 2.0
e 266 131 1.0
e 267 312 25.0
e 267 187 29.0
e 267 36 37.0
e 268 207 11.0
e 268 205 1.0
e 268 233 12.0
e 268 255 39.0
e 269 291 2.0
e 269 100 15.0
e 269 204 48.0
e 269 168 1.0
e 270 92 34.0
e 270 242 40.0
e 270 111 4.0
e 270 128 18.0
e 271 128 32.0
e 271 22 40.0
e 271 248 37.0
e 271 93 10.0
e 272 171 14.0
e 272 21 9.0
e 272 11 42.0
e 272 78 11.0
e 273 1 1.0
e 273 296 19.0
e 273 0 1.0
e 273 38 1.0
e 274 118 1.0
e 274 161 2.0
e 274 153 2.0
e 274 219 1.0
e 275 8 1.0
e 275 139 1.0
e 275 123 1.0
e 275 273 1.0
e 276 83 1.0
e 276 48 2.0
e 276 262 1.0
e 276 293 12.0
e 277 53 1.0
e 277 151 2.0
e 277 95 1.0
e 277 232 1.0
e 278 142 1.0
e 278 164 1.0
e 278 187 1.0
e 278 60 1.0
e 279 221 6.0
e 279 36 32.0
e 279 262 1.0
e 279 6 1.0
e 280 253 45.0
e 280 239 1.0
e 280 203 2.0
e 280 72 1.0
e 281 295 17.0
e 281 296 25.0
e 281 246 37.0
e 281 253 41.0
e 282 177 2.0
e 282 59 1.0
e 282 173 1.0
e 282 108 1.0
e 283 56 25.0
e 283 137 1.0
e 283 310 1.0
e 283 51 1.0
e 284 160 2.0
e 284 300 11.0
e 284 311 35.0
e 284 0 12.0
e 285 9 1.0
e 285 70 1.0
e 285 174 42.0
e 285 206 3.0
e 286 201 1.0
e 286 310 1.0
e 286 206 1.0
e 286 67 2.0
e 287 52 1.0
e 287 98 21.0
e 287 123 1.0
e 287 49 31.0
e 288 265 45.0
e 288 19 1.0
e 288 52 1.0
e 288 105 1.0
e 289 233 24.0
e 289 25 17.0
e 289 194 5.0
e 289 244 39.0
e 290 48 2.0
e 290 201 1.0
e 290 98 48.0
e 290 55 2.0
e 291 80 1.0
e 291 172 1.0
e 291 277 1.0
e 291 192 2.0
e 292 290 41.0
e 292 168 41.0
e 292 88 47.0
e 292 220 33.0
e 293 147 49.0
e 293 197 41.0
e 293 119 29.0
e 293 207 19.0
e 294 241 1.0
e 294 130 36.0
e 294 97 1.0
e 294 68 31.0
e 295 113 39.0
e 295 261 24.0
e 295 57 18.0
e 295 148 23.0
e 296 110 9.0
e 296 154 14.0
e 296 142 2.0
e 296 190 3.0
e 297 251 1.0
e 297 53 1.0
e 297 39 1.0
e 297 45 39.0
e 298 22 1.0
e 298 182 1.0
e 298 181 2.0
e 298 289 22.0
e 299 263 1.0
e 299 28 2.0
e 299 278 1.0
e 299 153 1.0
e 300 139 45.0
e 300 21 31.0
e 300 108 24.0
e 300 143 26.0
e 301 165 2.0
e 301 54 2.0
e 301 138 12.0
e 301 223 2.0
e 302 14 27.0
e 302 10 1.0
e 302 307 3.0
e 302 79 1.0
e 303 133 43.0
e 303 10 1.0
e 303 239 1.0
e 303 276 1.0
e 304 32 47.0
e 304 102 1.0
e 304 185 23.0
e 304 284 49.0
e 305 175 1.0
e 305 202 13.0
e 305 133 39.0
e 305 98 23.0
e 306 9 1.0
e 306 292 27.0
e 306 289 36.0
e 306 105 1.0
e 307 273 1.0
e 307 196 1.0
e 307 49 22.0
e 307 312 1.0
e 308 240 1.0
e 308 78 1.0
e 308 86 36.0
e 308 245 1.0
e 309 15 1.0
e 309 127 1.0
e 309 87 1.0
e 309 311 1.0
e 310 268 1.0
e 310 297 1.0
e 310 186 1.0
e 310 296 9.0
e 311 248 1.0
e 311 272 47.0
e 311 43 1.0
e 312 285 1.0
e 312 72 1.0
e 312 92 42.0
e 312 153 1.0
e 313 105 1.0
e 313 121 1.0
e 313 24 1.0
e 313 68 1.0
e 314 112 1.0
e 314 187 45.0
e 314 287 14.0
e 314 35 17.0
e 315 313 22.0
e 315 142 8.0
e 315 64 40.0
e 315 284 21.0
e 316 318 1.0
e 316 42 1.0
e 316 271 18.0
e 316 164 2.0
e 317 31 35.0
e 317 271 30.0
e 317 228 1.0
e 317 315 44.0
e 318 269 1.0
e 318 266 1.0
e 318 233 45.0
e 318 294 1.0
e 319 271 26.0
e 319 88 1.0
e 319 305 1.0
e 319 187 1.0
